NAME : portgen-30-31
COMMENT : portgen N=30, seed=31
TYPE : TSP
DIMENSION : 30
EDGE_WEIGHT_TYPE : EUC_2D
NODE_COORD_SECTION
1 841151 996343
2 52951 851005
3 239315 371867
4 246193 35818
5 479764 146579
6 335135 138253
7 369790 834301
8 955383 814858
9 929480 694907
10 188466 395846
11 366567 461375
12 68956 866157
13 160317 649437
14 75376 322363
15 712771 880075
16 66487 933471
17 761821 290775
18 223055 901111
19 218901 716139
20 440385 342474
21 41900 250209
22 315143 936346
23 339123 119092
24 326130 559626
25 3090 375477
26 504064 91497
27 778763 191542
28 515128 907680
29 234522 762176
30 627950 338204
